# Cost: 1019

# Tail Head Net
 33  34 1
 33  93 1
 34  35 1
 93 153 1
 35  36 1
 36  37 1
 37  38 1
 38  39 1
 39  40 1
 40  41 1
 41  42 1
 42  43 1
 43  44 1
 44  45 1
 45  46 1
 46  47 1
 47  48 1
 48  49 1
 49  50 1
 50  51 1
 51  52 1
 52  53 1
 53  54 1
153 213 1
213 273 1
273 333 1
333 393 1
393 453 1
453 513 1
513 573 1
573 633 1
633 693 1
693 753 1
753 813 1
813 873 1
873 933 1
933 993 1
993 1053 1
1053 1113 1
1113 1173 1
1173 1233 1
1233 1293 1
1293 1353 1
1353 1413 1
1413 1473 1
1473 1533 1
1533 1593 1
1593 1653 1
1653 1713 1
1713 1773 1
1773 1833 1
1833 1893 1
1893 1953 1
1953 2013 1
2013 2073 1
2073 2133 1
2133 2193 1
2193 2253 1
2253 2313 1
2313 2373 1
2373 2433 1
2433 2493 1
2493 2553 1
2553 2613 1
2613 2673 1
2673 2733 1
2733 2793 1
2793 2853 1
2853 2913 1
2913 2973 1
2973 3033 1
3033 3093 1
3093 3153 1
3153 3213 1
3213 3273 1
3273 3333 1
3333 3393 1
3393 3453 1
3453 3454 1
3453 3513 1
3454 3455 1
3455 3515 1
3511 3571 1
3512 3511 1
3513 3512 1
3515 3516 1
3516 3517 1
3517 3518 1
3518 3519 1
3519 3520 1
3520 3521 1
3521 3522 1
3522 3523 1
3523 3524 1
3524 3525 1
3525 3526 1
3526 3527 1
3527 3528 1
3528 3529 1
3529 3530 1
3530 3531 1
3531 3532 1
3532 3533 1
3533 3534 1
3534 3535 1
3535 3595 1
3565 3564 1
3566 3565 1
3567 3566 1
3568 3567 1
3569 3568 1
3570 3569 1
3571 3570 1
3595 3596 1
3596 3597 1
3597 3598 1
 63   3 2
122 121 2
123  63 2
123 122 2
124 123 2
184 124 2
244 184 2
245 244 2
305 245 2
365 305 2
425 365 2
426 425 2
486 426 2
546 486 2
606 546 2
666 606 2
667 666 2
727 667 2
787 727 2
847 787 2
907 847 2
967 907 2
1027 967 2
1087 1027 2
1147 1087 2
1207 1147 2
1267 1207 2
1327 1267 2
1387 1327 2
1447 1387 2
1507 1447 2
1567 1507 2
1627 1567 2
1687 1627 2
1747 1687 2
1807 1747 2
1867 1807 2
1927 1867 2
1987 1927 2
2047 1987 2
2107 2047 2
2167 2107 2
2227 2167 2
2287 2227 2
2347 2287 2
2407 2347 2
2467 2407 2
2468 2467 2
2528 2468 2
2529 2528 2
2530 2529 2
2531 2530 2
2532 2531 2
2533 2532 2
2534 2533 2
2594 2534 2
2654 2594 2
2655 2654 2
2715 2655 2
2775 2715 2
2835 2775 2
2895 2835 2
2955 2895 2
3015 2955 2
3075 3015 2
3135 3075 2
3195 3135 2
3196 3195 2
3256 3196 2
3257 3256 2
3258 3257 2
3259 3258 2
3260 3259 2
3320 3260 2
3321 3320 2
3381 3321 2
3441 3381 2
3501 3441 2
3502 3501 2
3562 3502 2
3563 3562 2
  7   8 3
  8   9 3
  9  10 3
 10  11 3
 11  12 3
 12  13 3
 13  14 3
 14  15 3
 15  16 3
 16  17 3
 17  18 3
 18  19 3
 19  20 3
 20  21 3
 21  22 3
 22  23 3
 23  24 3
 24  25 3
 25  26 3
 26 3626 3
3626 3686 3
3686 3746 3
3746 3806 3
3806 3866 3
3866 3926 3
3926 3986 3
3986 4046 3
4046 4106 3
4106 4166 3
4166 4226 3
4226 4286 3
4286 4346 3
4346 4406 3
4406 4466 3
4466 4526 3
4526 4586 3
4586 4646 3
4646 4706 3
4706 4766 3
4766 4826 3
4826 4886 3
4886 4946 3
1354 1355 3
1355 1356 3
1356 1357 3
1357 1358 3
1358 1359 3
1359 1360 3
1360 1361 3
1361 1362 3
1362 1363 3
1363 1364 3
1364 1365 3
1365 1366 3
1366 1367 3
1367 1368 3
1368 1369 3
1369 1370 3
1370 1371 3
1371 1372 3
1372 1373 3
1373 1374 3
1374 1375 3
1375 1376 3
1376 1377 3
1377 1378 3
1378 1379 3
1379 1380 3
4946 4947 3
4947 4948 3
4948 4949 3
4949 4950 3
4950 4951 3
4951 4952 3
4952 4953 3
4953 4954 3
4954 1354 3
541 542 4
542 543 4
543 544 4
544 604 4
604 664 4
664 724 4
724 784 4
784 844 4
844 904 4
904 964 4
964 1024 4
1024 1084 4
1084 1144 4
1144 1204 4
1204 1264 4
1264 1324 4
1324 1384 4
1384 1444 4
1444 1504 4
1504 1564 4
1564 1624 4
1624 1684 4
1684 1744 4
1744 1804 4
1804 1864 4
1864 1924 4
1924 1984 4
1984 2044 4
2044 2104 4
2104 2164 4
2164 2224 4
2224 2284 4
2284 2344 4
2344 2404 4
2404 2464 4
2464 2524 4
2524 2584 4
2584 2644 4
2644 2704 4
2704 2764 4
2764 2765 4
2765 2766 4
2766 2826 4
2826 2886 4
2886 2946 4
2946 3006 4
3006 3066 4
3006 6606 4
3034 3035 4
3035 3036 4
3036 3037 4
3037 3038 4
3038 3039 4
3039 3040 4
3040 3041 4
3041 3042 4
3042 3043 4
3043 3044 4
3044 3045 4
3045 3046 4
3046 3047 4
3047 3048 4
3048 3049 4
3049 3050 4
3050 3051 4
3051 3052 4
3052 3053 4
3053 3054 4
3054 3055 4
3055 3056 4
3056 3057 4
3057 3058 4
3058 3059 4
3059 3060 4
3066 3126 4
6606 6607 4
6607 6608 4
6608 6609 4
6609 6610 4
6610 6611 4
6611 6612 4
6612 6613 4
6613 6614 4
6614 6615 4
6615 6616 4
6616 6617 4
6617 6618 4
6618 6619 4
6619 6620 4
6620 6621 4
6621 6622 4
6622 6623 4
6623 6624 4
6624 6625 4
6625 6626 4
6626 6627 4
6627 6628 4
6628 6629 4
6629 6630 4
6630 6631 4
6631 6632 4
6632 6633 4
6633 6634 4
6634 3034 4
3126 3186 4
3186 3246 4
3246 3306 4
3306 3366 4
3366 3426 4
3426 3486 4
3486 3546 4
 29  30 5
 30  31 5
 31  32 5
 32 3632 5
3632 3633 5
3633 3634 5
3634 3635 5
3635 3636 5
3636 3637 5
3637 3638 5
3638 3639 5
3639 3640 5
3640 3641 5
3641 3642 5
3642 3643 5
3643 3644 5
3644 3645 5
3645 3646 5
3646 3647 5
3647 3648 5
3648 3649 5
3649 3650 5
3650 3651 5
3651 3652 5
3652 3653 5
3653 3654 5
3654 3655 5
3655 3656 5
3656 3657 5
 58 118 5
3657 3658 5
118 178 5
3658  58 5
178 238 5
238 298 5
298 358 5
358 418 5
418 478 5
478 538 5
538 598 5
598 658 5
658 718 5
718 778 5
778 838 5
838 898 5
898 958 5
958 1018 5
1018 1078 5
1078 1138 5
1138 1139 5
1139 1199 5
1199 1200 5
1200 1260 5
1260 1320 5
3061 3001 6
3121 3061 6
3181 3121 6
3241 3181 6
3241 3242 6
3242 3243 6
3243 6843 6
6843 6844 6
6844 6845 6
6845 6846 6
6846 6847 6
6847 6848 6
6848 6849 6
6849 6850 6
6850 6851 6
6851 6852 6
6852 6853 6
6853 6913 6
6913 6914 6
6914 6915 6
6915 6916 6
6916 6917 6
6917 6918 6
6918 6919 6
6919 6920 6
6920 6921 6
6921 6922 6
6922 6923 6
6923 6983 6
6983 6984 6
6984 6985 6
6985 6986 6
6986 6987 6
6987 6988 6
6988 6989 6
6989 6990 6
6990 6991 6
6991 7051 6
7051 7111 6
7111 7171 6
7171 7172 6
7172 7173 6
7173 7174 6
7174 7175 6
7175 7176 6
7176 7177 6
7177 7178 6
7178 7179 6
7179 7180 6
7180 7181 6
7181 3581 6
840 4440 7
4440 4500 7
4500 4560 7
4560 4620 7
4620 4680 7
4680 4740 7
4740 4800 7
4800 4860 7
4860 4920 7
4920 4980 7
4980 5040 7
5040 5100 7
5100 5160 7
5160 5220 7
5220 5280 7
5280 5340 7
5340 5400 7
5400 5460 7
5460 5520 7
5520 5580 7
5580 5640 7
5640 5700 7
5700 5760 7
5760 5820 7
5820 5880 7
5880 5940 7
5940 6000 7
6000 6060 7
6060 6120 7
6120 6180 7
6180 6240 7
6240 6300 7
6300 6360 7
6301 2701 7
6302 6301 7
6303 6302 7
6304 6303 7
6305 6304 7
6306 6305 7
6307 6306 7
6308 6307 7
6309 6308 7
6310 6309 7
6311 6310 7
6312 6311 7
6313 6312 7
6314 6313 7
6315 6314 7
6316 6315 7
6317 6316 7
6318 6317 7
6319 6318 7
6320 6319 7
6321 6320 7
6322 6321 7
6323 6322 7
6324 6323 7
6325 6324 7
6326 6325 7
6327 6326 7
6328 6327 7
6329 6328 7
6330 6329 7
6331 6330 7
6332 6331 7
6333 6332 7
6334 6333 7
6335 6334 7
6336 6335 7
6337 6336 7
6338 6337 7
6339 6338 7
6340 6339 7
6341 6340 7
6342 6341 7
6343 6342 7
6344 6343 7
6345 6344 7
6346 6345 7
6347 6346 7
6348 6347 7
6349 6348 7
6350 6349 7
6351 6350 7
6352 6351 7
6353 6352 7
6354 6353 7
6355 6354 7
6356 6355 7
6357 6356 7
6358 6357 7
6359 6358 7
6360 6359 7
 55 115 8
 56  55 8
115 175 8
175 235 8
235 295 8
295 355 8
355 415 8
415 475 8
475 535 8
535 595 8
595 655 8
655 715 8
715 775 8
775 835 8
835 895 8
895 955 8
955 1015 8
1015 1075 8
1075 1135 8
1135 1195 8
1195 1255 8
1255 1315 8
1285 4885 8
1286 1285 8
1287 1286 8
1288 1287 8
1289 1288 8
1290 1289 8
1291 1290 8
1294 4894 8
1295 1294 8
1296 1295 8
1297 1296 8
1298 1297 8
1299 1298 8
1300 1299 8
1301 1300 8
1302 1301 8
1303 1302 8
1304 1303 8
1305 1304 8
1306 1305 8
1307 1306 8
1308 1307 8
1309 1308 8
1310 1309 8
1311 1310 8
1312 1311 8
1313 1312 8
1314 1313 8
1315 1314 8
1322 1321 8
1323 1322 8
4869 4929 8
4870 4869 8
4871 4870 8
4872 4871 8
4873 4872 8
4874 4873 8
4875 4874 8
4876 4875 8
4877 4876 8
4878 4877 8
4879 4878 8
4880 4879 8
4881 4880 8
4882 4881 8
4883 4882 8
4884 4883 8
4885 4884 8
4891 1291 8
4892 4891 8
4893 4892 8
4894 4893 8
4923 1323 8
4924 4923 8
4925 4924 8
4926 4925 8
4927 4926 8
4928 4927 8
4929 4928 8
361 362 9
362 422 9
422 423 9
423 483 9
483 484 9
484 485 9
485 545 9
545 605 9
605 665 9
665 725 9
725 726 9
726 786 9
786 846 9
846 906 9
906 966 9
966 1026 9
1026 1086 9
1086 1146 9
1146 1206 9
1206 1266 9
1266 1326 9
1326 1386 9
1386 1446 9
1446 1506 9
1506 1566 9
1566 1626 9
1626 1686 9
1686 1746 9
1746 1806 9
1806 1866 9
1866 1926 9
1926 1986 9
1986 2046 9
2046 2106 9
2106 2166 9
2166 2226 9
2226 2286 9
2286 2346 9
2346 2406 9
2406 2466 9
2466 2526 9
2526 2527 9
2527 2587 9
2587 2588 9
2588 2589 9
2589 2590 9
2590 2591 9
2591 2592 9
2592 2593 9
2593 2653 9
2653 2713 9
2713 2773 9
2773 2774 9
2774 6374 9
6374 6375 9
6375 6376 9
6376 6377 9
6377 6378 9
6378 6379 9
6379 6380 9
6380 6381 9
6381 6382 9
6382 6383 9
6383 6384 9
6384 6385 9
6385 6386 9
6386 6387 9
6387 6447 9
6447 6507 9
6507 6567 9
6567 6568 9
6568 6569 9
6569 6570 9
6570 6571 9
6571 6572 9
6572 6573 9
6573 6574 9
6574 6575 9
6575 6635 9
3095 3096 9
6635 6695 9
3096 3097 9
3097 3098 9
3098 3099 9
3099 3100 9
3100 3101 9
3101 3102 9
3102 3103 9
3103 3104 9
3104 3105 9
3105 3106 9
3106 3107 9
3107 3108 9
3108 3109 9
3109 3110 9
3110 3111 9
3111 3112 9
3112 3113 9
3113 3114 9
3114 3115 9
3115 3116 9
3116 3117 9
3117 3118 9
3118 3178 9
6695 3095 9
3178 3238 9
3238 3298 9
3298 3358 9
3358 3418 9
3418 3419 9
3419 3420 9
2642 2641 10
2702 2642 10
2762 2702 10
2772 6372 10
6362 2762 10
6363 6362 10
6364 6363 10
6365 6364 10
6366 6365 10
6367 6366 10
6368 6367 10
6369 6368 10
6370 6369 10
6371 6370 10
2832 2772 10
6372 6371 10
2892 2832 10
2893 2892 10
2894 2893 10
2954 2894 10
3014 2954 10
3074 3014 10
3134 3074 10
3194 3134 10
3254 3194 10
3314 3254 10
3374 3314 10
3434 3374 10
3435 3434 10
3436 3435 10
3496 3436 10
3497 3496 10
3498 3497 10
3499 3498 10
3559 3499 10
 83 3683 11
 84  83 11
 85  84 11
 86  85 11
3661  61 11
3662 3661 11
3663 3662 11
3664 3663 11
3665 3664 11
3666 3665 11
3667 3666 11
3668 3667 11
3669 3668 11
3670 3669 11
3671 3670 11
3672 3671 11
3673 3672 11
3674 3673 11
3675 3674 11
3676 3675 11
3677 3676 11
3678 3677 11
3679 3678 11
3680 3679 11
3681 3680 11
3682 3681 11
3683 3682 11
146  86 11
206 146 11
207 206 11
3807 207 11
3808 3807 11
300 3900 11
3868 3808 11
3869 3868 11
3870 3869 11
3871 3870 11
3872 3871 11
3873 3872 11
3874 3873 11
3875 3874 11
3876 3875 11
3877 3876 11
3878 3877 11
3879 3878 11
3880 3879 11
3881 3880 11
3882 3881 11
3883 3882 11
3884 3883 11
3885 3884 11
3886 3885 11
3887 3886 11
3888 3887 11
3889 3888 11
3890 3889 11
3891 3890 11
3892 3891 11
3893 3892 11
3894 3893 11
3895 3894 11
3896 3895 11
3897 3896 11
3898 3897 11
3899 3898 11
3900 3899 11
2375 2376 12
2376 2377 12
2377 2378 12
2378 2379 12
2379 2380 12
2380 2381 12
2381 2382 12
2382 2383 12
2383 2384 12
2384 2385 12
2385 2386 12
2386 2387 12
2387 2388 12
2388 2389 12
2389 2390 12
2390 2391 12
2391 2392 12
2392 2393 12
2393 2394 12
2394 2395 12
2395 2396 12
2396 2397 12
2397 2398 12
2398 2399 12
2399 2400 12
2401 6001 12
5958 5959 12
5959 5960 12
5960 5961 12
5961 5962 12
5962 5963 12
5963 5964 12
5964 5965 12
5965 5966 12
5966 5967 12
5967 5968 12
5968 5969 12
5969 5970 12
5970 5971 12
5971 5972 12
5972 5973 12
5973 5974 12
5974 5975 12
5975 2375 12
6001 6002 12
6002 6003 12
6003 6004 12
6004 6005 12
6005 6006 12
6006 6007 12
6007 6008 12
6008 6009 12
6009 6010 12
6010 6011 12
6011 6012 12
6012 6013 12
6013 6014 12
6014 6015 12
6015 6016 12
6016 6017 12
6017 6018 12
6018 5958 12
1440 1500 13
1500 1560 13
1560 1620 13
1620 1680 13
1680 1740 13
1740 1800 13
1800 1860 13
1860 1920 13
1920 1980 13
1980 2040 13
2040 2100 13
2100 2160 13
2160 2220 13
2220 2280 13
2279 5879 13
2280 2279 13
5879 5939 13
5939 5999 13
2459 2519 13
5999 6059 13
2519 2520 13
6059 2459 13
2520 2580 13
2580 2640 13
2640 2700 13
2700 2760 13
2760 2820 13
2820 6420 13
6420 6480 13
6480 6540 13
6540 6600 13
6600 6660 13
3120 3180 13
6660 6720 13
3180 3240 13
6720 3120 13
3240 3300 13
3422 3421 14
3423 3422 14
3424 3423 14
3425 3424 14
3443 7043 14
3444 3443 14
3445 3444 14
3446 3445 14
3447 3446 14
3448 3447 14
3449 3448 14
3450 3449 14
3451 3450 14
3452 3451 14
7025 3425 14
7026 7025 14
7027 7026 14
7028 7027 14
7029 7028 14
7030 7029 14
7031 7030 14
7032 7031 14
7033 7032 14
7034 7033 14
7035 7034 14
7036 7035 14
7037 7036 14
7038 7037 14
7039 7038 14
7040 7039 14
7041 7040 14
7042 7041 14
7043 7042 14
7052 3452 14
7053 7052 14
3514 7114 14
7054 7053 14
3574 3514 14
7114 7054 14
3575 3574 14
3576 3575 14
3577 3576 14
3578 3577 14
3579 3578 14
